c A SAT instance generated from a 3-CNF formula that had 24 clauses and 6 variables
p cnf 6 24
1 3 4 0
2 -3 5 0
3 1 -2 0
-2 -3 4 0
2 1 -5 0
-6 3 1 0
5 -6 1 0
4 -6 1 0
-2 -1 3 0
1 -2 4 0
2 -4 6 0
3 -5 -2 0
3 6 -5 0
6 -3 1 0
-3 5 -2 0
2 -4 5 0
-2 -3 6 0
2 -3 -1 0
3 1 -4 0
-5 6 3 0
-2 -6 1 0
-4 -1 -5 0
-5 -1 -3 0
3 1 2 0
